(set-logic QF_LIA)
(declare-fun x0 () Int)
(declare-fun x1 () Int)
(declare-fun x2 () Int)
(declare-fun x3 () Int)
(declare-fun x4 () Int)
(declare-fun x5 () Int)
(declare-fun x6 () Int)
(declare-fun x7 () Int)
(declare-fun x8 () Int)
(declare-fun x9 () Int)
(declare-fun A0 () Bool)
(declare-fun A1 () Bool)
(declare-fun A2 () Bool)
(declare-fun A3 () Bool)
(declare-fun A4 () Bool)
(declare-fun A5 () Bool)
(declare-fun A6 () Bool)
(declare-fun A7 () Bool)
(declare-fun A8 () Bool)
(declare-fun A9 () Bool)
(assert (let ((.def_0 (* (- 1) x5))) (let ((.def_1 (* (- 1) x4))) (let ((.def_2 (+ .def_1 .def_0))) (let ((.def_3 (< .def_2 (- 1)))) (let ((.def_4 (not .def_3))) (let ((.def_5 (* 1 x2))) (let ((.def_6 (* (- 1) x1))) (let ((.def_7 (+ .def_6 .def_5))) (let ((.def_8 (< .def_7 (- 1)))) (let ((.def_9 (not .def_8))) (let ((.def_10 (and .def_9 .def_4))) (let ((.def_11 (* 1 x8))) (let ((.def_12 (+ .def_11 .def_5))) (let ((.def_13 (< .def_12 (- 1)))) (let ((.def_14 (not .def_13))) (let ((.def_15 (* (- 1) x9))) (let ((.def_16 (* 1 x6))) (let ((.def_17 (+ .def_16 .def_15))) (let ((.def_18 (< .def_17 (- 1)))) (let ((.def_19 (not .def_18))) (let ((.def_20 (= .def_19 .def_14))) (let ((.def_21 (and .def_20 .def_10))) (let ((.def_22 (not A1))) (let ((.def_23 (+ .def_16 .def_0))) (let ((.def_24 (< .def_23 1))) (let ((.def_25 (and .def_24 .def_22))) (let ((.def_26 (not A6))) (let ((.def_27 (< .def_11 1))) (let ((.def_28 (not .def_27))) (let ((.def_29 (and .def_28 .def_26))) (let ((.def_30 (or .def_29 .def_25))) (let ((.def_31 (not .def_30))) (let ((.def_32 (or .def_31 .def_21))) (let ((.def_33 (and A4 A4))) (let ((.def_34 (not .def_33))) (let ((.def_35 (* (- 1) x2))) (let ((.def_36 (+ .def_0 .def_35))) (let ((.def_37 (< .def_36 1))) (let ((.def_38 (not .def_37))) (let ((.def_39 (* 1 x1))) (let ((.def_40 (+ .def_5 .def_39))) (let ((.def_41 (< .def_40 1))) (let ((.def_42 (and .def_41 .def_38))) (let ((.def_43 (not .def_42))) (let ((.def_44 (or .def_43 .def_34))) (let ((.def_45 (* 1 x3))) (let ((.def_46 (+ .def_35 .def_45))) (let ((.def_47 (< .def_46 (- 1)))) (let ((.def_48 (not A8))) (let ((.def_49 (= .def_48 .def_47))) (let ((.def_50 (< .def_35 (- 1)))) (let ((.def_51 (+ .def_39 .def_11))) (let ((.def_52 (< .def_51 1))) (let ((.def_53 (or .def_52 .def_50))) (let ((.def_54 (or .def_53 .def_49))) (let ((.def_55 (or .def_54 .def_44))) (let ((.def_56 (and .def_55 .def_32))) (let ((.def_57 (< .def_1 (- 1)))) (let ((.def_58 (not .def_57))) (let ((.def_59 (+ .def_35 .def_16))) (let ((.def_60 (< .def_59 (- 1)))) (let ((.def_61 (not .def_60))) (let ((.def_62 (or .def_61 .def_58))) (let ((.def_63 (not A9))) (let ((.def_64 (* (- 1) x7))) (let ((.def_65 (* (- 1) x0))) (let ((.def_66 (+ .def_65 .def_64))) (let ((.def_67 (< .def_66 1))) (let ((.def_68 (or .def_67 .def_63))) (let ((.def_69 (not .def_68))) (let ((.def_70 (or .def_69 .def_62))) (let ((.def_71 (* 1 x4))) (let ((.def_72 (+ .def_35 .def_71))) (let ((.def_73 (< .def_72 (- 1)))) (let ((.def_74 (or A5 .def_73))) (let ((.def_75 (not .def_74))) (let ((.def_76 (not A0))) (let ((.def_77 (or .def_76 A3))) (let ((.def_78 (not .def_77))) (let ((.def_79 (or .def_78 .def_75))) (let ((.def_80 (not .def_79))) (let ((.def_81 (or .def_80 .def_70))) (let ((.def_82 (and A4 .def_63))) (let ((.def_83 (not .def_82))) (let ((.def_84 (* 1 x5))) (let ((.def_85 (+ .def_84 .def_5))) (let ((.def_86 (< .def_85 1))) (let ((.def_87 (not .def_86))) (let ((.def_88 (or .def_76 .def_87))) (let ((.def_89 (not .def_88))) (let ((.def_90 (and .def_89 .def_83))) (let ((.def_91 (not .def_90))) (let ((.def_92 (< .def_51 (- 1)))) (let ((.def_93 (not .def_92))) (let ((.def_94 (and A5 .def_93))) (let ((.def_95 (not .def_94))) (let ((.def_96 (or A9 A1))) (let ((.def_97 (and .def_96 .def_95))) (let ((.def_98 (and .def_97 .def_91))) (let ((.def_99 (or .def_98 .def_81))) (let ((.def_100 (not .def_99))) (let ((.def_101 (or .def_100 .def_56))) (let ((.def_102 (not .def_101))) (let ((.def_103 (* (- 1) x6))) (let ((.def_104 (* 1 x7))) (let ((.def_105 (+ .def_104 .def_103))) (let ((.def_106 (< .def_105 (- 1)))) (let ((.def_107 (not .def_106))) (let ((.def_108 (or .def_26 .def_107))) (let ((.def_109 (< .def_65 1))) (let ((.def_110 (or .def_63 .def_109))) (let ((.def_111 (= .def_110 .def_108))) (let ((.def_112 (not .def_111))) (let ((.def_113 (< .def_6 (- 1)))) (let ((.def_114 (or .def_113 A9))) (let ((.def_115 (not .def_114))) (let ((.def_116 (not A3))) (let ((.def_117 (or .def_76 .def_116))) (let ((.def_118 (and .def_117 .def_115))) (let ((.def_119 (and .def_118 .def_112))) (let ((.def_120 (< .def_11 (- 1)))) (let ((.def_121 (not .def_120))) (let ((.def_122 (and A4 .def_121))) (let ((.def_123 (not .def_122))) (let ((.def_124 (not .def_52))) (let ((.def_125 (or .def_124 A2))) (let ((.def_126 (and .def_125 .def_123))) (let ((.def_127 (not .def_126))) (let ((.def_128 (< .def_45 1))) (let ((.def_129 (or A3 .def_128))) (let ((.def_130 (not .def_129))) (let ((.def_131 (* (- 1) x3))) (let ((.def_132 (+ .def_131 .def_15))) (let ((.def_133 (< .def_132 1))) (let ((.def_134 (not A7))) (let ((.def_135 (and .def_134 .def_133))) (let ((.def_136 (= .def_135 .def_130))) (let ((.def_137 (and .def_136 .def_127))) (let ((.def_138 (or .def_137 .def_119))) (let ((.def_139 (not .def_138))) (let ((.def_140 (or A4 A5))) (let ((.def_141 (< .def_71 1))) (let ((.def_142 (not .def_141))) (let ((.def_143 (and .def_134 .def_142))) (let ((.def_144 (not .def_143))) (let ((.def_145 (and .def_144 .def_140))) (let ((.def_146 (< .def_0 1))) (let ((.def_147 (or .def_146 .def_76))) (let ((.def_148 (not .def_147))) (let ((.def_149 (not A4))) (let ((.def_150 (+ .def_6 .def_16))) (let ((.def_151 (< .def_150 1))) (let ((.def_152 (and .def_151 .def_149))) (let ((.def_153 (or .def_152 .def_148))) (let ((.def_154 (not .def_153))) (let ((.def_155 (and .def_154 .def_145))) (let ((.def_156 (not .def_155))) (let ((.def_157 (< .def_16 1))) (let ((.def_158 (< .def_84 (- 1)))) (let ((.def_159 (and .def_158 .def_157))) (let ((.def_160 (not A5))) (let ((.def_161 (< .def_103 1))) (let ((.def_162 (not .def_161))) (let ((.def_163 (or .def_162 .def_160))) (let ((.def_164 (or .def_163 .def_159))) (let ((.def_165 (not .def_164))) (let ((.def_166 (< .def_71 (- 1)))) (let ((.def_167 (not .def_166))) (let ((.def_168 (* 1 x9))) (let ((.def_169 (+ .def_71 .def_168))) (let ((.def_170 (< .def_169 (- 1)))) (let ((.def_171 (not .def_170))) (let ((.def_172 (or .def_171 .def_167))) (let ((.def_173 (not .def_172))) (let ((.def_174 (< .def_168 1))) (let ((.def_175 (not .def_109))) (let ((.def_176 (or .def_175 .def_174))) (let ((.def_177 (or .def_176 .def_173))) (let ((.def_178 (not .def_177))) (let ((.def_179 (and .def_178 .def_165))) (let ((.def_180 (and .def_179 .def_156))) (let ((.def_181 (and .def_180 .def_139))) (let ((.def_182 (and .def_181 .def_102))) (let ((.def_183 (+ .def_104 .def_71))) (let ((.def_184 (< .def_183 1))) (let ((.def_185 (and A3 .def_184))) (let ((.def_186 (not .def_185))) (let ((.def_187 (and A9 .def_22))) (let ((.def_188 (= .def_187 .def_186))) (let ((.def_189 (not .def_188))) (let ((.def_190 (+ .def_45 .def_6))) (let ((.def_191 (< .def_190 1))) (let ((.def_192 (= .def_191 .def_149))) (let ((.def_193 (not .def_192))) (let ((.def_194 (+ .def_64 .def_6))) (let ((.def_195 (< .def_194 (- 1)))) (let ((.def_196 (not .def_195))) (let ((.def_197 (or .def_196 A2))) (let ((.def_198 (or .def_197 .def_193))) (let ((.def_199 (and .def_198 .def_189))) (let ((.def_200 (< .def_104 1))) (let ((.def_201 (or A9 .def_200))) (let ((.def_202 (not .def_201))) (let ((.def_203 (< .def_15 1))) (let ((.def_204 (not .def_203))) (let ((.def_205 (or .def_116 .def_204))) (let ((.def_206 (not .def_205))) (let ((.def_207 (or .def_206 .def_202))) (let ((.def_208 (not .def_207))) (let ((.def_209 (and .def_22 A0))) (let ((.def_210 (not .def_209))) (let ((.def_211 (or .def_22 .def_134))) (let ((.def_212 (and .def_211 .def_210))) (let ((.def_213 (or .def_212 .def_208))) (let ((.def_214 (not .def_213))) (let ((.def_215 (or .def_214 .def_199))) (let ((.def_216 (and .def_149 .def_63))) (let ((.def_217 (not .def_216))) (let ((.def_218 (and A9 A0))) (let ((.def_219 (not .def_218))) (let ((.def_220 (and .def_219 .def_217))) (let ((.def_221 (not A2))) (let ((.def_222 (or .def_221 A8))) (let ((.def_223 (+ .def_65 .def_84))) (let ((.def_224 (< .def_223 (- 1)))) (let ((.def_225 (+ .def_84 .def_168))) (let ((.def_226 (< .def_225 (- 1)))) (let ((.def_227 (and .def_226 .def_224))) (let ((.def_228 (not .def_227))) (let ((.def_229 (and .def_228 .def_222))) (let ((.def_230 (not .def_229))) (let ((.def_231 (and .def_230 .def_220))) (let ((.def_232 (not .def_231))) (let ((.def_233 (= A4 A0))) (let ((.def_234 (and .def_134 A7))) (let ((.def_235 (not .def_234))) (let ((.def_236 (and .def_235 .def_233))) (let ((.def_237 (< .def_131 (- 1)))) (let ((.def_238 (* (- 1) x8))) (let ((.def_239 (< .def_238 (- 1)))) (let ((.def_240 (not .def_239))) (let ((.def_241 (= .def_240 .def_237))) (let ((.def_242 (+ .def_65 .def_71))) (let ((.def_243 (< .def_242 1))) (let ((.def_244 (or .def_63 .def_243))) (let ((.def_245 (not .def_244))) (let ((.def_246 (or .def_245 .def_241))) (let ((.def_247 (and .def_246 .def_236))) (let ((.def_248 (or .def_247 .def_232))) (let ((.def_249 (not .def_248))) (let ((.def_250 (or .def_249 .def_215))) (let ((.def_251 (not .def_250))) (let ((.def_252 (+ .def_6 .def_84))) (let ((.def_253 (< .def_252 (- 1)))) (let ((.def_254 (and A1 .def_253))) (let ((.def_255 (not .def_254))) (let ((.def_256 (+ .def_71 .def_0))) (let ((.def_257 (< .def_256 (- 1)))) (let ((.def_258 (and .def_257 .def_134))) (let ((.def_259 (not .def_258))) (let ((.def_260 (and .def_259 .def_255))) (let ((.def_261 (< .def_238 1))) (let ((.def_262 (not .def_261))) (let ((.def_263 (= A9 .def_262))) (let ((.def_264 (< .def_39 (- 1)))) (let ((.def_265 (not .def_264))) (let ((.def_266 (= .def_265 .def_22))) (let ((.def_267 (not .def_266))) (let ((.def_268 (or .def_267 .def_263))) (let ((.def_269 (not .def_268))) (let ((.def_270 (or .def_269 .def_260))) (let ((.def_271 (not .def_270))) (let ((.def_272 (+ .def_131 .def_168))) (let ((.def_273 (< .def_272 (- 1)))) (let ((.def_274 (or .def_273 A2))) (let ((.def_275 (< .def_59 1))) (let ((.def_276 (or .def_275 .def_116))) (let ((.def_277 (and .def_276 .def_274))) (let ((.def_278 (not .def_277))) (let ((.def_279 (not .def_200))) (let ((.def_280 (and .def_279 A0))) (let ((.def_281 (not .def_280))) (let ((.def_282 (+ .def_84 .def_35))) (let ((.def_283 (< .def_282 (- 1)))) (let ((.def_284 (not .def_283))) (let ((.def_285 (and .def_63 .def_284))) (let ((.def_286 (or .def_285 .def_281))) (let ((.def_287 (or .def_286 .def_278))) (let ((.def_288 (not .def_287))) (let ((.def_289 (and .def_288 .def_271))) (let ((.def_290 (not .def_289))) (let ((.def_291 (+ .def_104 .def_39))) (let ((.def_292 (< .def_291 (- 1)))) (let ((.def_293 (or .def_221 .def_292))) (let ((.def_294 (or A7 A5))) (let ((.def_295 (or .def_294 .def_293))) (let ((.def_296 (not .def_295))) (let ((.def_297 (and .def_239 .def_158))) (let ((.def_298 (+ .def_65 .def_103))) (let ((.def_299 (< .def_298 1))) (let ((.def_300 (and .def_113 .def_299))) (let ((.def_301 (not .def_300))) (let ((.def_302 (or .def_301 .def_297))) (let ((.def_303 (not .def_302))) (let ((.def_304 (or .def_303 .def_296))) (let ((.def_305 (not .def_157))) (let ((.def_306 (and .def_134 .def_305))) (let ((.def_307 (or .def_221 .def_63))) (let ((.def_308 (not .def_307))) (let ((.def_309 (or .def_308 .def_306))) (let ((.def_310 (not .def_309))) (let ((.def_311 (not .def_128))) (let ((.def_312 (< .def_282 1))) (let ((.def_313 (not .def_312))) (let ((.def_314 (and .def_313 .def_311))) (let ((.def_315 (not .def_314))) (let ((.def_316 (+ .def_0 .def_103))) (let ((.def_317 (< .def_316 1))) (let ((.def_318 (not .def_317))) (let ((.def_319 (and A0 .def_318))) (let ((.def_320 (not .def_319))) (let ((.def_321 (and .def_320 .def_315))) (let ((.def_322 (or .def_321 .def_310))) (let ((.def_323 (not .def_322))) (let ((.def_324 (and .def_323 .def_304))) (let ((.def_325 (not .def_324))) (let ((.def_326 (= .def_325 .def_290))) (let ((.def_327 (not .def_326))) (let ((.def_328 (and .def_327 .def_251))) (let ((.def_329 (not .def_328))) (let ((.def_330 (or .def_329 .def_182))) (let ((.def_331 (< .def_131 1))) (let ((.def_332 (and .def_331 A9))) (let ((.def_333 (not .def_332))) (let ((.def_334 (< .def_16 (- 1)))) (let ((.def_335 (* 1 x0))) (let ((.def_336 (+ .def_104 .def_335))) (let ((.def_337 (< .def_336 1))) (let ((.def_338 (and .def_337 .def_334))) (let ((.def_339 (and .def_338 .def_333))) (let ((.def_340 (not .def_339))) (let ((.def_341 (+ .def_131 .def_238))) (let ((.def_342 (< .def_341 1))) (let ((.def_343 (not .def_342))) (let ((.def_344 (and .def_343 .def_26))) (let ((.def_345 (not .def_344))) (let ((.def_346 (< .def_6 1))) (let ((.def_347 (or .def_346 A0))) (let ((.def_348 (not .def_347))) (let ((.def_349 (or .def_348 .def_345))) (let ((.def_350 (and .def_349 .def_340))) (let ((.def_351 (not .def_350))) (let ((.def_352 (+ .def_238 .def_15))) (let ((.def_353 (< .def_352 1))) (let ((.def_354 (or A3 .def_353))) (let ((.def_355 (and A6 A2))) (let ((.def_356 (or .def_355 .def_354))) (let ((.def_357 (not .def_356))) (let ((.def_358 (< .def_335 (- 1)))) (let ((.def_359 (not .def_358))) (let ((.def_360 (and .def_175 .def_359))) (let ((.def_361 (not .def_360))) (let ((.def_362 (and .def_162 A4))) (let ((.def_363 (not .def_362))) (let ((.def_364 (and .def_363 .def_361))) (let ((.def_365 (not .def_364))) (let ((.def_366 (or .def_365 .def_357))) (let ((.def_367 (not .def_366))) (let ((.def_368 (and .def_367 .def_351))) (let ((.def_369 (not .def_368))) (let ((.def_370 (+ .def_15 .def_335))) (let ((.def_371 (< .def_370 (- 1)))) (let ((.def_372 (not .def_371))) (let ((.def_373 (and .def_372 .def_128))) (let ((.def_374 (not .def_373))) (let ((.def_375 (and .def_261 .def_167))) (let ((.def_376 (and .def_375 .def_374))) (let ((.def_377 (not .def_376))) (let ((.def_378 (< .def_1 1))) (let ((.def_379 (or A9 .def_378))) (let ((.def_380 (+ .def_45 .def_5))) (let ((.def_381 (< .def_380 (- 1)))) (let ((.def_382 (not .def_381))) (let ((.def_383 (and .def_382 A0))) (let ((.def_384 (not .def_383))) (let ((.def_385 (and .def_384 .def_379))) (let ((.def_386 (not .def_385))) (let ((.def_387 (or .def_386 .def_377))) (let ((.def_388 (+ .def_5 .def_335))) (let ((.def_389 (< .def_388 (- 1)))) (let ((.def_390 (not .def_389))) (let ((.def_391 (+ .def_104 .def_65))) (let ((.def_392 (< .def_391 (- 1)))) (let ((.def_393 (and .def_392 .def_390))) (let ((.def_394 (not .def_393))) (let ((.def_395 (not .def_50))) (let ((.def_396 (or .def_237 .def_395))) (let ((.def_397 (not .def_396))) (let ((.def_398 (or .def_397 .def_394))) (let ((.def_399 (or A0 A2))) (let ((.def_400 (+ .def_45 .def_64))) (let ((.def_401 (< .def_400 (- 1)))) (let ((.def_402 (not .def_401))) (let ((.def_403 (+ .def_65 .def_168))) (let ((.def_404 (< .def_403 (- 1)))) (let ((.def_405 (and .def_404 .def_402))) (let ((.def_406 (not .def_405))) (let ((.def_407 (and .def_406 .def_399))) (let ((.def_408 (not .def_407))) (let ((.def_409 (and .def_408 .def_398))) (let ((.def_410 (not .def_409))) (let ((.def_411 (or .def_410 .def_387))) (let ((.def_412 (not .def_411))) (let ((.def_413 (and .def_412 .def_369))) (let ((.def_414 (not .def_413))) (let ((.def_415 (+ .def_39 .def_84))) (let ((.def_416 (< .def_415 1))) (let ((.def_417 (not .def_416))) (let ((.def_418 (and A4 .def_417))) (let ((.def_419 (< .def_335 1))) (let ((.def_420 (not .def_419))) (let ((.def_421 (or .def_420 .def_142))) (let ((.def_422 (not .def_421))) (let ((.def_423 (or .def_422 .def_418))) (let ((.def_424 (not .def_423))) (let ((.def_425 (+ .def_104 .def_16))) (let ((.def_426 (< .def_425 (- 1)))) (let ((.def_427 (and .def_141 .def_426))) (let ((.def_428 (not .def_427))) (let ((.def_429 (+ .def_6 .def_15))) (let ((.def_430 (< .def_429 1))) (let ((.def_431 (not .def_430))) (let ((.def_432 (and A5 .def_431))) (let ((.def_433 (and .def_432 .def_428))) (let ((.def_434 (and .def_433 .def_424))) (let ((.def_435 (+ .def_335 .def_6))) (let ((.def_436 (< .def_435 (- 1)))) (let ((.def_437 (and A8 .def_436))) (let ((.def_438 (not .def_437))) (let ((.def_439 (or .def_48 A8))) (let ((.def_440 (not .def_439))) (let ((.def_441 (and .def_440 .def_438))) (let ((.def_442 (+ .def_131 .def_1))) (let ((.def_443 (< .def_442 1))) (let ((.def_444 (not .def_443))) (let ((.def_445 (= .def_444 .def_134))) (let ((.def_446 (not .def_445))) (let ((.def_447 (< .def_65 (- 1)))) (let ((.def_448 (not .def_447))) (let ((.def_449 (and .def_448 A8))) (let ((.def_450 (not .def_449))) (let ((.def_451 (= .def_450 .def_446))) (let ((.def_452 (not .def_451))) (let ((.def_453 (and .def_452 .def_441))) (let ((.def_454 (or .def_453 .def_434))) (let ((.def_455 (not .def_454))) (let ((.def_456 (and .def_57 .def_149))) (let ((.def_457 (not .def_456))) (let ((.def_458 (and A6 .def_237))) (let ((.def_459 (not .def_458))) (let ((.def_460 (and .def_459 .def_457))) (let ((.def_461 (not .def_460))) (let ((.def_462 (not .def_174))) (let ((.def_463 (and .def_462 A1))) (let ((.def_464 (and A3 A2))) (let ((.def_465 (not .def_464))) (let ((.def_466 (or .def_465 .def_463))) (let ((.def_467 (not .def_466))) (let ((.def_468 (or .def_467 .def_461))) (let ((.def_469 (+ .def_64 .def_16))) (let ((.def_470 (< .def_469 (- 1)))) (let ((.def_471 (not .def_470))) (let ((.def_472 (and .def_471 .def_262))) (let ((.def_473 (+ .def_71 .def_6))) (let ((.def_474 (< .def_473 1))) (let ((.def_475 (< .def_5 1))) (let ((.def_476 (and .def_475 .def_474))) (let ((.def_477 (not .def_476))) (let ((.def_478 (and .def_477 .def_472))) (let ((.def_479 (and A0 .def_22))) (let ((.def_480 (or .def_221 .def_157))) (let ((.def_481 (or .def_480 .def_479))) (let ((.def_482 (or .def_481 .def_478))) (let ((.def_483 (not .def_482))) (let ((.def_484 (and .def_483 .def_468))) (let ((.def_485 (or .def_484 .def_455))) (let ((.def_486 (not .def_485))) (let ((.def_487 (or .def_486 .def_414))) (let ((.def_488 (and .def_221 .def_134))) (let ((.def_489 (or .def_149 .def_76))) (let ((.def_490 (not .def_489))) (let ((.def_491 (or .def_490 .def_488))) (let ((.def_492 (+ .def_103 .def_168))) (let ((.def_493 (< .def_492 (- 1)))) (let ((.def_494 (and A4 .def_493))) (let ((.def_495 (< .def_168 (- 1)))) (let ((.def_496 (not .def_495))) (let ((.def_497 (+ .def_39 .def_104))) (let ((.def_498 (< .def_497 1))) (let ((.def_499 (not .def_498))) (let ((.def_500 (or .def_499 .def_496))) (let ((.def_501 (and .def_500 .def_494))) (let ((.def_502 (or .def_501 .def_491))) (let ((.def_503 (and .def_26 A2))) (let ((.def_504 (not .def_503))) (let ((.def_505 (and A5 .def_63))) (let ((.def_506 (not .def_505))) (let ((.def_507 (or .def_506 .def_504))) (let ((.def_508 (not .def_507))) (let ((.def_509 (and .def_334 A4))) (let ((.def_510 (+ .def_131 .def_11))) (let ((.def_511 (< .def_510 1))) (let ((.def_512 (or .def_160 .def_511))) (let ((.def_513 (not .def_512))) (let ((.def_514 (or .def_513 .def_509))) (let ((.def_515 (or .def_514 .def_508))) (let ((.def_516 (not .def_515))) (let ((.def_517 (and .def_516 .def_502))) (let ((.def_518 (not .def_517))) (let ((.def_519 (+ .def_15 .def_65))) (let ((.def_520 (< .def_519 (- 1)))) (let ((.def_521 (not .def_520))) (let ((.def_522 (and .def_134 .def_521))) (let ((.def_523 (not .def_522))) (let ((.def_524 (= .def_175 A9))) (let ((.def_525 (not .def_524))) (let ((.def_526 (and .def_525 .def_523))) (let ((.def_527 (= .def_116 A9))) (let ((.def_528 (not .def_527))) (let ((.def_529 (not .def_191))) (let ((.def_530 (< .def_15 (- 1)))) (let ((.def_531 (and .def_530 .def_529))) (let ((.def_532 (not .def_531))) (let ((.def_533 (and .def_532 .def_528))) (let ((.def_534 (or .def_533 .def_526))) (let ((.def_535 (+ .def_64 .def_168))) (let ((.def_536 (< .def_535 (- 1)))) (let ((.def_537 (= .def_536 A7))) (let ((.def_538 (+ .def_35 .def_15))) (let ((.def_539 (< .def_538 1))) (let ((.def_540 (and .def_539 A5))) (let ((.def_541 (or .def_540 .def_537))) (let ((.def_542 (not .def_541))) (let ((.def_543 (or A4 .def_305))) (let ((.def_544 (not .def_543))) (let ((.def_545 (+ .def_168 .def_35))) (let ((.def_546 (< .def_545 (- 1)))) (let ((.def_547 (not .def_546))) (let ((.def_548 (or .def_48 .def_547))) (let ((.def_549 (or .def_548 .def_544))) (let ((.def_550 (and .def_549 .def_542))) (let ((.def_551 (not .def_550))) (let ((.def_552 (and .def_551 .def_534))) (let ((.def_553 (or .def_552 .def_518))) (let ((.def_554 (< .def_64 1))) (let ((.def_555 (not .def_554))) (let ((.def_556 (or .def_475 .def_555))) (let ((.def_557 (not .def_556))) (let ((.def_558 (and .def_149 A1))) (let ((.def_559 (= .def_558 .def_557))) (let ((.def_560 (not .def_559))) (let ((.def_561 (or A0 A9))) (let ((.def_562 (not .def_561))) (let ((.def_563 (+ .def_335 .def_131))) (let ((.def_564 (< .def_563 (- 1)))) (let ((.def_565 (+ .def_104 .def_131))) (let ((.def_566 (< .def_565 1))) (let ((.def_567 (not .def_566))) (let ((.def_568 (and .def_567 .def_564))) (let ((.def_569 (or .def_568 .def_562))) (let ((.def_570 (not .def_569))) (let ((.def_571 (and .def_570 .def_560))) (let ((.def_572 (or A9 A0))) (let ((.def_573 (or .def_22 .def_149))) (let ((.def_574 (= .def_573 .def_572))) (let ((.def_575 (not .def_574))) (let ((.def_576 (+ .def_131 .def_104))) (let ((.def_577 (< .def_576 (- 1)))) (let ((.def_578 (not .def_577))) (let ((.def_579 (and .def_166 .def_578))) (let ((.def_580 (and .def_48 .def_221))) (let ((.def_581 (not .def_580))) (let ((.def_582 (and .def_581 .def_579))) (let ((.def_583 (and .def_582 .def_575))) (let ((.def_584 (= .def_583 .def_571))) (let ((.def_585 (not .def_584))) (let ((.def_586 (+ .def_65 .def_1))) (let ((.def_587 (< .def_586 1))) (let ((.def_588 (not .def_587))) (let ((.def_589 (or .def_588 A4))) (let ((.def_590 (+ .def_131 .def_64))) (let ((.def_591 (< .def_590 (- 1)))) (let ((.def_592 (not .def_591))) (let ((.def_593 (or .def_592 A3))) (let ((.def_594 (not .def_593))) (let ((.def_595 (and .def_594 .def_589))) (let ((.def_596 (< .def_39 1))) (let ((.def_597 (not .def_596))) (let ((.def_598 (+ .def_0 .def_5))) (let ((.def_599 (< .def_598 (- 1)))) (let ((.def_600 (not .def_599))) (let ((.def_601 (and .def_600 .def_597))) (let ((.def_602 (+ .def_65 .def_45))) (let ((.def_603 (< .def_602 1))) (let ((.def_604 (+ .def_6 .def_45))) (let ((.def_605 (< .def_604 (- 1)))) (let ((.def_606 (not .def_605))) (let ((.def_607 (or .def_606 .def_603))) (let ((.def_608 (and .def_607 .def_601))) (let ((.def_609 (and .def_608 .def_595))) (let ((.def_610 (not .def_609))) (let ((.def_611 (or A0 .def_26))) (let ((.def_612 (+ .def_5 .def_16))) (let ((.def_613 (< .def_612 (- 1)))) (let ((.def_614 (+ .def_64 .def_5))) (let ((.def_615 (< .def_614 (- 1)))) (let ((.def_616 (or .def_615 .def_613))) (let ((.def_617 (not .def_616))) (let ((.def_618 (and .def_617 .def_611))) (let ((.def_619 (not .def_618))) (let ((.def_620 (or .def_167 A8))) (let ((.def_621 (not .def_158))) (let ((.def_622 (= .def_621 A5))) (let ((.def_623 (not .def_622))) (let ((.def_624 (and .def_623 .def_620))) (let ((.def_625 (not .def_624))) (let ((.def_626 (and .def_625 .def_619))) (let ((.def_627 (and .def_626 .def_610))) (let ((.def_628 (or .def_627 .def_585))) (let ((.def_629 (not .def_628))) (let ((.def_630 (or .def_629 .def_553))) (let ((.def_631 (and .def_630 .def_487))) (let ((.def_632 (and .def_631 .def_330))) (let ((.def_633 (not .def_632))) (let ((.def_634 (<= x9 1))) (let ((.def_635 (<= 0 x9))) (let ((.def_636 (<= x8 1))) (let ((.def_637 (<= 0 x8))) (let ((.def_638 (<= x7 1))) (let ((.def_639 (<= 0 x7))) (let ((.def_640 (<= x6 1))) (let ((.def_641 (<= 0 x6))) (let ((.def_642 (<= x5 1))) (let ((.def_643 (<= 0 x5))) (let ((.def_644 (<= x4 1))) (let ((.def_645 (<= 0 x4))) (let ((.def_646 (<= x3 1))) (let ((.def_647 (<= 0 x3))) (let ((.def_648 (<= x2 1))) (let ((.def_649 (<= 0 x2))) (let ((.def_650 (<= x1 1))) (let ((.def_651 (<= 0 x1))) (let ((.def_652 (<= x0 1))) (let ((.def_653 (<= 0 x0))) (let ((.def_654 (and .def_653 .def_652 .def_651 .def_650 .def_649 .def_648 .def_647 .def_646 .def_645 .def_644 .def_643 .def_642 .def_641 .def_640 .def_639 .def_638 .def_637 .def_636 .def_635 .def_634 .def_633))) .def_654))))))))))))))))))))))))))))))))))))))))))))))))))))))))))))))))))))))))))))))))))))))))))))))))))))))))))))))))))))))))))))))))))))))))))))))))))))))))))))))))))))))))))))))))))))))))))))))))))))))))))))))))))))))))))))))))))))))))))))))))))))))))))))))))))))))))))))))))))))))))))))))))))))))))))))))))))))))))))))))))))))))))))))))))))))))))))))))))))))))))))))))))))))))))))))))))))))))))))))))))))))))))))))))))))))))))))))))))))))))))))))))))))))))))))))))))))))))))))))))))))))))))))))))))))))))))))))))))))))))))))))))))))))))))))))))))))))))))))))))))))))))))))))))))))))))))))))))))))))))))))))))))))))))))))))))))))))))))))))))))))))))))))))))))
(check-sat)
